letting n =  10
letting blocks =  [[1, 2], [1, 6], [1, 7], [1, 10], [2, 3], [2, 7], [2, 9], [2, 10], [3, 1], [3, 2], [3, 3], [3, 5], [3, 6], [3, 8], [4, 4], [4, 6], [4, 9], [4, 10], [5, 5], [5, 9], [6, 1], [6, 4], [6, 8], [7, 1], [7, 5], [7, 6], [8, 4], [8, 10], [9, 2], [9, 6], [9, 10], [10, 3], [10, 6], [10, 10]]
